1659436200
1659452400
1659522600
1659537900
1659609000
1659625200
1659695400
1659711600
1659954600
1659971700
1660041900
1660057200
1660127400
1660146300
1660558800
1660576500
1660645800
1660662000
1660732200
1660741200
1660818600
1660829400
1661769000
1661787600
1661855400
1661869800
